p cnf 267 1291
-1 -33 0
-2 -33 0
1 2 33 0
1 2 -34 0
-1 -2 -34 0
-1 2 34 0
1 -2 34 0
33 -35 0
-3 -35 0
3 -33 35 0
3 -33 -36 0
-3 33 -36 0
3 33 36 0
-3 -33 36 0
35 -37 0
-4 -37 0
4 -35 37 0
4 -35 -38 0
-4 35 -38 0
4 35 38 0
-4 -35 38 0
37 -39 0
-5 -39 0
5 -37 39 0
5 -37 -40 0
-5 37 -40 0
5 37 40 0
-5 -37 40 0
39 -41 0
-6 -41 0
6 -39 41 0
6 -39 -42 0
-6 39 -42 0
6 39 42 0
-6 -39 42 0
41 -43 0
-7 -43 0
7 -41 43 0
7 -41 -44 0
-7 41 -44 0
7 41 44 0
-7 -41 44 0
43 -45 0
-8 -45 0
8 -43 45 0
8 -43 -46 0
-8 43 -46 0
8 43 46 0
-8 -43 46 0
2 -47 0
1 -47 0
-1 -2 47 0
-1 -2 -48 0
1 2 -48 0
1 -2 48 0
-1 2 48 0
-2 -3 49 0
-3 -47 49 0
-2 -47 49 0
2 3 -49 0
3 47 -49 0
2 47 -49 0
3 -49 -50 0
2 -49 -50 0
47 -49 -50 0
-3 49 50 0
-2 49 50 0
-47 49 50 0
-2 -3 -47 50 0
2 3 47 -50 0
-3 -4 51 0
-4 -49 51 0
-3 -49 51 0
3 4 -51 0
4 49 -51 0
3 49 -51 0
4 -51 -52 0
3 -51 -52 0
49 -51 -52 0
-4 51 52 0
-3 51 52 0
-49 51 52 0
-3 -4 -49 52 0
3 4 49 -52 0
-4 -5 53 0
-5 -51 53 0
-4 -51 53 0
4 5 -53 0
5 51 -53 0
4 51 -53 0
5 -53 -54 0
4 -53 -54 0
51 -53 -54 0
-5 53 54 0
-4 53 54 0
-51 53 54 0
-4 -5 -51 54 0
4 5 51 -54 0
-5 -6 55 0
-6 -53 55 0
-5 -53 55 0
5 6 -55 0
6 53 -55 0
5 53 -55 0
6 -55 -56 0
5 -55 -56 0
53 -55 -56 0
-6 55 56 0
-5 55 56 0
-53 55 56 0
-5 -6 -53 56 0
5 6 53 -56 0
-6 -7 57 0
-7 -55 57 0
-6 -55 57 0
6 7 -57 0
7 55 -57 0
6 55 -57 0
7 -57 -58 0
6 -57 -58 0
55 -57 -58 0
-7 57 58 0
-6 57 58 0
-55 57 58 0
-6 -7 -55 58 0
6 7 55 -58 0
-7 -8 59 0
-8 -57 59 0
-7 -57 59 0
7 8 -59 0
8 57 -59 0
7 57 -59 0
8 -59 -60 0
7 -59 -60 0
57 -59 -60 0
-8 59 60 0
-7 59 60 0
-57 59 60 0
-7 -8 -57 60 0
7 8 57 -60 0
8 -61 0
59 -61 0
-8 -59 61 0
-8 -59 -62 0
8 59 -62 0
-8 59 62 0
8 -59 62 0
50 -63 0
1 -63 0
-1 -50 63 0
-1 -50 -64 0
1 50 -64 0
1 -50 64 0
-1 50 64 0
-2 -52 65 0
-52 -63 65 0
-2 -63 65 0
2 52 -65 0
52 63 -65 0
2 63 -65 0
52 -65 -66 0
2 -65 -66 0
63 -65 -66 0
-52 65 66 0
-2 65 66 0
-63 65 66 0
-2 -52 -63 66 0
2 52 63 -66 0
-3 -54 67 0
-54 -65 67 0
-3 -65 67 0
3 54 -67 0
54 65 -67 0
3 65 -67 0
54 -67 -68 0
3 -67 -68 0
65 -67 -68 0
-54 67 68 0
-3 67 68 0
-65 67 68 0
-3 -54 -65 68 0
3 54 65 -68 0
-4 -56 69 0
-56 -67 69 0
-4 -67 69 0
4 56 -69 0
56 67 -69 0
4 67 -69 0
56 -69 -70 0
4 -69 -70 0
67 -69 -70 0
-56 69 70 0
-4 69 70 0
-67 69 70 0
-4 -56 -67 70 0
4 56 67 -70 0
-5 -58 71 0
-58 -69 71 0
-5 -69 71 0
5 58 -71 0
58 69 -71 0
5 69 -71 0
58 -71 -72 0
5 -71 -72 0
69 -71 -72 0
-58 71 72 0
-5 71 72 0
-69 71 72 0
-5 -58 -69 72 0
5 58 69 -72 0
-6 -60 73 0
-60 -71 73 0
-6 -71 73 0
6 60 -73 0
60 71 -73 0
6 71 -73 0
60 -73 -74 0
6 -73 -74 0
71 -73 -74 0
-60 73 74 0
-6 73 74 0
-71 73 74 0
-6 -60 -71 74 0
6 60 71 -74 0
-7 -62 75 0
-62 -73 75 0
-7 -73 75 0
7 62 -75 0
62 73 -75 0
7 73 -75 0
62 -75 -76 0
7 -75 -76 0
73 -75 -76 0
-62 75 76 0
-7 75 76 0
-73 75 76 0
-7 -62 -73 76 0
7 62 73 -76 0
-8 -61 77 0
-61 -75 77 0
-8 -75 77 0
8 61 -77 0
61 75 -77 0
8 75 -77 0
61 -77 -78 0
8 -77 -78 0
75 -77 -78 0
-61 77 78 0
-8 77 78 0
-75 77 78 0
-8 -61 -75 78 0
8 61 75 -78 0
66 -79 0
1 -79 0
-1 -66 79 0
-1 -66 -80 0
1 66 -80 0
1 -66 80 0
-1 66 80 0
-2 -68 81 0
-68 -79 81 0
-2 -79 81 0
2 68 -81 0
68 79 -81 0
2 79 -81 0
68 -81 -82 0
2 -81 -82 0
79 -81 -82 0
-68 81 82 0
-2 81 82 0
-79 81 82 0
-2 -68 -79 82 0
2 68 79 -82 0
-3 -70 83 0
-70 -81 83 0
-3 -81 83 0
3 70 -83 0
70 81 -83 0
3 81 -83 0
70 -83 -84 0
3 -83 -84 0
81 -83 -84 0
-70 83 84 0
-3 83 84 0
-81 83 84 0
-3 -70 -81 84 0
3 70 81 -84 0
-4 -72 85 0
-72 -83 85 0
-4 -83 85 0
4 72 -85 0
72 83 -85 0
4 83 -85 0
72 -85 -86 0
4 -85 -86 0
83 -85 -86 0
-72 85 86 0
-4 85 86 0
-83 85 86 0
-4 -72 -83 86 0
4 72 83 -86 0
-5 -74 87 0
-74 -85 87 0
-5 -85 87 0
5 74 -87 0
74 85 -87 0
5 85 -87 0
74 -87 -88 0
5 -87 -88 0
85 -87 -88 0
-74 87 88 0
-5 87 88 0
-85 87 88 0
-5 -74 -85 88 0
5 74 85 -88 0
-6 -76 89 0
-76 -87 89 0
-6 -87 89 0
6 76 -89 0
76 87 -89 0
6 87 -89 0
76 -89 -90 0
6 -89 -90 0
87 -89 -90 0
-76 89 90 0
-6 89 90 0
-87 89 90 0
-6 -76 -87 90 0
6 76 87 -90 0
-7 -78 91 0
-78 -89 91 0
-7 -89 91 0
7 78 -91 0
78 89 -91 0
7 89 -91 0
78 -91 -92 0
7 -91 -92 0
89 -91 -92 0
-78 91 92 0
-7 91 92 0
-89 91 92 0
-7 -78 -89 92 0
7 78 89 -92 0
-8 -77 93 0
-77 -91 93 0
-8 -91 93 0
8 77 -93 0
77 91 -93 0
8 91 -93 0
77 -93 -94 0
8 -93 -94 0
91 -93 -94 0
-77 93 94 0
-8 93 94 0
-91 93 94 0
-8 -77 -91 94 0
8 77 91 -94 0
82 -95 0
1 -95 0
-1 -82 95 0
-1 -82 -96 0
1 82 -96 0
1 -82 96 0
-1 82 96 0
-2 -84 97 0
-84 -95 97 0
-2 -95 97 0
2 84 -97 0
84 95 -97 0
2 95 -97 0
84 -97 -98 0
2 -97 -98 0
95 -97 -98 0
-84 97 98 0
-2 97 98 0
-95 97 98 0
-2 -84 -95 98 0
2 84 95 -98 0
-3 -86 99 0
-86 -97 99 0
-3 -97 99 0
3 86 -99 0
86 97 -99 0
3 97 -99 0
86 -99 -100 0
3 -99 -100 0
97 -99 -100 0
-86 99 100 0
-3 99 100 0
-97 99 100 0
-3 -86 -97 100 0
3 86 97 -100 0
-4 -88 101 0
-88 -99 101 0
-4 -99 101 0
4 88 -101 0
88 99 -101 0
4 99 -101 0
88 -101 -102 0
4 -101 -102 0
99 -101 -102 0
-88 101 102 0
-4 101 102 0
-99 101 102 0
-4 -88 -99 102 0
4 88 99 -102 0
-5 -90 103 0
-90 -101 103 0
-5 -101 103 0
5 90 -103 0
90 101 -103 0
5 101 -103 0
90 -103 -104 0
5 -103 -104 0
101 -103 -104 0
-90 103 104 0
-5 103 104 0
-101 103 104 0
-5 -90 -101 104 0
5 90 101 -104 0
-6 -92 105 0
-92 -103 105 0
-6 -103 105 0
6 92 -105 0
92 103 -105 0
6 103 -105 0
92 -105 -106 0
6 -105 -106 0
103 -105 -106 0
-92 105 106 0
-6 105 106 0
-103 105 106 0
-6 -92 -103 106 0
6 92 103 -106 0
-7 -94 107 0
-94 -105 107 0
-7 -105 107 0
7 94 -107 0
94 105 -107 0
7 105 -107 0
94 -107 -108 0
7 -107 -108 0
105 -107 -108 0
-94 107 108 0
-7 107 108 0
-105 107 108 0
-7 -94 -105 108 0
7 94 105 -108 0
-8 -93 109 0
-93 -107 109 0
-8 -107 109 0
8 93 -109 0
93 107 -109 0
8 107 -109 0
93 -109 -110 0
8 -109 -110 0
107 -109 -110 0
-93 109 110 0
-8 109 110 0
-107 109 110 0
-8 -93 -107 110 0
8 93 107 -110 0
-1 -111 0
-48 -111 0
1 48 111 0
1 48 -112 0
-1 -48 -112 0
-1 48 112 0
1 -48 112 0
111 -113 0
-64 -113 0
64 -111 113 0
64 -111 -114 0
-64 111 -114 0
64 111 114 0
-64 -111 114 0
113 -115 0
-80 -115 0
80 -113 115 0
80 -113 -116 0
-80 113 -116 0
80 113 116 0
-80 -113 116 0
115 -117 0
-96 -117 0
96 -115 117 0
96 -115 -118 0
-96 115 -118 0
96 115 118 0
-96 -115 118 0
117 -119 0
-98 -119 0
98 -117 119 0
98 -117 -120 0
-98 117 -120 0
98 117 120 0
-98 -117 120 0
119 -121 0
-100 -121 0
100 -119 121 0
100 -119 -122 0
-100 119 -122 0
100 119 122 0
-100 -119 122 0
121 -123 0
-102 -123 0
102 -121 123 0
102 -121 -124 0
-102 121 -124 0
102 121 124 0
-102 -121 124 0
123 -125 0
-104 -125 0
104 -123 125 0
104 -123 -126 0
-104 123 -126 0
104 123 126 0
-104 -123 126 0
125 -127 0
-106 -127 0
106 -125 127 0
106 -125 -128 0
-106 125 -128 0
106 125 128 0
-106 -125 128 0
127 -129 0
-108 -129 0
108 -127 129 0
108 -127 -130 0
-108 127 -130 0
108 127 130 0
-108 -127 130 0
129 -131 0
-110 -131 0
110 -129 131 0
110 -129 -132 0
-110 129 -132 0
110 129 132 0
-110 -129 132 0
131 -133 0
-109 -133 0
109 -131 133 0
109 -131 -134 0
-109 131 -134 0
109 131 134 0
-109 -131 134 0
-9 -135 0
-10 -135 0
9 10 135 0
9 10 -136 0
-9 -10 -136 0
-9 10 136 0
9 -10 136 0
135 -137 0
-11 -137 0
11 -135 137 0
11 -135 -138 0
-11 135 -138 0
11 135 138 0
-11 -135 138 0
137 -139 0
-12 -139 0
12 -137 139 0
12 -137 -140 0
-12 137 -140 0
12 137 140 0
-12 -137 140 0
139 -141 0
-13 -141 0
13 -139 141 0
13 -139 -142 0
-13 139 -142 0
13 139 142 0
-13 -139 142 0
141 -143 0
-14 -143 0
14 -141 143 0
14 -141 -144 0
-14 141 -144 0
14 141 144 0
-14 -141 144 0
143 -145 0
-15 -145 0
15 -143 145 0
15 -143 -146 0
-15 143 -146 0
15 143 146 0
-15 -143 146 0
145 -147 0
-16 -147 0
16 -145 147 0
16 -145 -148 0
-16 145 -148 0
16 145 148 0
-16 -145 148 0
10 -149 0
9 -149 0
-9 -10 149 0
-9 -10 -150 0
9 10 -150 0
9 -10 150 0
-9 10 150 0
-10 -11 151 0
-11 -149 151 0
-10 -149 151 0
10 11 -151 0
11 149 -151 0
10 149 -151 0
11 -151 -152 0
10 -151 -152 0
149 -151 -152 0
-11 151 152 0
-10 151 152 0
-149 151 152 0
-10 -11 -149 152 0
10 11 149 -152 0
-11 -12 153 0
-12 -151 153 0
-11 -151 153 0
11 12 -153 0
12 151 -153 0
11 151 -153 0
12 -153 -154 0
11 -153 -154 0
151 -153 -154 0
-12 153 154 0
-11 153 154 0
-151 153 154 0
-11 -12 -151 154 0
11 12 151 -154 0
-12 -13 155 0
-13 -153 155 0
-12 -153 155 0
12 13 -155 0
13 153 -155 0
12 153 -155 0
13 -155 -156 0
12 -155 -156 0
153 -155 -156 0
-13 155 156 0
-12 155 156 0
-153 155 156 0
-12 -13 -153 156 0
12 13 153 -156 0
-13 -14 157 0
-14 -155 157 0
-13 -155 157 0
13 14 -157 0
14 155 -157 0
13 155 -157 0
14 -157 -158 0
13 -157 -158 0
155 -157 -158 0
-14 157 158 0
-13 157 158 0
-155 157 158 0
-13 -14 -155 158 0
13 14 155 -158 0
-14 -15 159 0
-15 -157 159 0
-14 -157 159 0
14 15 -159 0
15 157 -159 0
14 157 -159 0
15 -159 -160 0
14 -159 -160 0
157 -159 -160 0
-15 159 160 0
-14 159 160 0
-157 159 160 0
-14 -15 -157 160 0
14 15 157 -160 0
-15 -16 161 0
-16 -159 161 0
-15 -159 161 0
15 16 -161 0
16 159 -161 0
15 159 -161 0
16 -161 -162 0
15 -161 -162 0
159 -161 -162 0
-16 161 162 0
-15 161 162 0
-159 161 162 0
-15 -16 -159 162 0
15 16 159 -162 0
16 -163 0
161 -163 0
-16 -161 163 0
-16 -161 -164 0
16 161 -164 0
-16 161 164 0
16 -161 164 0
152 -165 0
9 -165 0
-9 -152 165 0
-9 -152 -166 0
9 152 -166 0
9 -152 166 0
-9 152 166 0
-10 -154 167 0
-154 -165 167 0
-10 -165 167 0
10 154 -167 0
154 165 -167 0
10 165 -167 0
154 -167 -168 0
10 -167 -168 0
165 -167 -168 0
-154 167 168 0
-10 167 168 0
-165 167 168 0
-10 -154 -165 168 0
10 154 165 -168 0
-11 -156 169 0
-156 -167 169 0
-11 -167 169 0
11 156 -169 0
156 167 -169 0
11 167 -169 0
156 -169 -170 0
11 -169 -170 0
167 -169 -170 0
-156 169 170 0
-11 169 170 0
-167 169 170 0
-11 -156 -167 170 0
11 156 167 -170 0
-12 -158 171 0
-158 -169 171 0
-12 -169 171 0
12 158 -171 0
158 169 -171 0
12 169 -171 0
158 -171 -172 0
12 -171 -172 0
169 -171 -172 0
-158 171 172 0
-12 171 172 0
-169 171 172 0
-12 -158 -169 172 0
12 158 169 -172 0
-13 -160 173 0
-160 -171 173 0
-13 -171 173 0
13 160 -173 0
160 171 -173 0
13 171 -173 0
160 -173 -174 0
13 -173 -174 0
171 -173 -174 0
-160 173 174 0
-13 173 174 0
-171 173 174 0
-13 -160 -171 174 0
13 160 171 -174 0
-14 -162 175 0
-162 -173 175 0
-14 -173 175 0
14 162 -175 0
162 173 -175 0
14 173 -175 0
162 -175 -176 0
14 -175 -176 0
173 -175 -176 0
-162 175 176 0
-14 175 176 0
-173 175 176 0
-14 -162 -173 176 0
14 162 173 -176 0
-15 -164 177 0
-164 -175 177 0
-15 -175 177 0
15 164 -177 0
164 175 -177 0
15 175 -177 0
164 -177 -178 0
15 -177 -178 0
175 -177 -178 0
-164 177 178 0
-15 177 178 0
-175 177 178 0
-15 -164 -175 178 0
15 164 175 -178 0
-16 -163 179 0
-163 -177 179 0
-16 -177 179 0
16 163 -179 0
163 177 -179 0
16 177 -179 0
163 -179 -180 0
16 -179 -180 0
177 -179 -180 0
-163 179 180 0
-16 179 180 0
-177 179 180 0
-16 -163 -177 180 0
16 163 177 -180 0
168 -181 0
9 -181 0
-9 -168 181 0
-9 -168 -182 0
9 168 -182 0
9 -168 182 0
-9 168 182 0
-10 -170 183 0
-170 -181 183 0
-10 -181 183 0
10 170 -183 0
170 181 -183 0
10 181 -183 0
170 -183 -184 0
10 -183 -184 0
181 -183 -184 0
-170 183 184 0
-10 183 184 0
-181 183 184 0
-10 -170 -181 184 0
10 170 181 -184 0
-11 -172 185 0
-172 -183 185 0
-11 -183 185 0
11 172 -185 0
172 183 -185 0
11 183 -185 0
172 -185 -186 0
11 -185 -186 0
183 -185 -186 0
-172 185 186 0
-11 185 186 0
-183 185 186 0
-11 -172 -183 186 0
11 172 183 -186 0
-12 -174 187 0
-174 -185 187 0
-12 -185 187 0
12 174 -187 0
174 185 -187 0
12 185 -187 0
174 -187 -188 0
12 -187 -188 0
185 -187 -188 0
-174 187 188 0
-12 187 188 0
-185 187 188 0
-12 -174 -185 188 0
12 174 185 -188 0
-13 -176 189 0
-176 -187 189 0
-13 -187 189 0
13 176 -189 0
176 187 -189 0
13 187 -189 0
176 -189 -190 0
13 -189 -190 0
187 -189 -190 0
-176 189 190 0
-13 189 190 0
-187 189 190 0
-13 -176 -187 190 0
13 176 187 -190 0
-14 -178 191 0
-178 -189 191 0
-14 -189 191 0
14 178 -191 0
178 189 -191 0
14 189 -191 0
178 -191 -192 0
14 -191 -192 0
189 -191 -192 0
-178 191 192 0
-14 191 192 0
-189 191 192 0
-14 -178 -189 192 0
14 178 189 -192 0
-15 -180 193 0
-180 -191 193 0
-15 -191 193 0
15 180 -193 0
180 191 -193 0
15 191 -193 0
180 -193 -194 0
15 -193 -194 0
191 -193 -194 0
-180 193 194 0
-15 193 194 0
-191 193 194 0
-15 -180 -191 194 0
15 180 191 -194 0
-16 -179 195 0
-179 -193 195 0
-16 -193 195 0
16 179 -195 0
179 193 -195 0
16 193 -195 0
179 -195 -196 0
16 -195 -196 0
193 -195 -196 0
-179 195 196 0
-16 195 196 0
-193 195 196 0
-16 -179 -193 196 0
16 179 193 -196 0
186 -197 0
9 -197 0
-9 -186 197 0
-9 -186 -198 0
9 186 -198 0
9 -186 198 0
-9 186 198 0
-10 -188 199 0
-188 -197 199 0
-10 -197 199 0
10 188 -199 0
188 197 -199 0
10 197 -199 0
188 -199 -200 0
10 -199 -200 0
197 -199 -200 0
-188 199 200 0
-10 199 200 0
-197 199 200 0
-10 -188 -197 200 0
10 188 197 -200 0
-11 -190 201 0
-190 -199 201 0
-11 -199 201 0
11 190 -201 0
190 199 -201 0
11 199 -201 0
190 -201 -202 0
11 -201 -202 0
199 -201 -202 0
-190 201 202 0
-11 201 202 0
-199 201 202 0
-11 -190 -199 202 0
11 190 199 -202 0
-12 -192 203 0
-192 -201 203 0
-12 -201 203 0
12 192 -203 0
192 201 -203 0
12 201 -203 0
192 -203 -204 0
12 -203 -204 0
201 -203 -204 0
-192 203 204 0
-12 203 204 0
-201 203 204 0
-12 -192 -201 204 0
12 192 201 -204 0
-13 -194 205 0
-194 -203 205 0
-13 -203 205 0
13 194 -205 0
194 203 -205 0
13 203 -205 0
194 -205 -206 0
13 -205 -206 0
203 -205 -206 0
-194 205 206 0
-13 205 206 0
-203 205 206 0
-13 -194 -203 206 0
13 194 203 -206 0
-14 -196 207 0
-196 -205 207 0
-14 -205 207 0
14 196 -207 0
196 205 -207 0
14 205 -207 0
196 -207 -208 0
14 -207 -208 0
205 -207 -208 0
-196 207 208 0
-14 207 208 0
-205 207 208 0
-14 -196 -205 208 0
14 196 205 -208 0
-15 -195 209 0
-195 -207 209 0
-15 -207 209 0
15 195 -209 0
195 207 -209 0
15 207 -209 0
195 -209 -210 0
15 -209 -210 0
207 -209 -210 0
-195 209 210 0
-15 209 210 0
-207 209 210 0
-15 -195 -207 210 0
15 195 207 -210 0
16 -211 0
209 -211 0
-16 -209 211 0
-16 -209 -212 0
16 209 -212 0
-16 209 212 0
16 -209 212 0
-9 -213 0
-150 -213 0
9 150 213 0
9 150 -214 0
-9 -150 -214 0
-9 150 214 0
9 -150 214 0
213 -215 0
-166 -215 0
166 -213 215 0
166 -213 -216 0
-166 213 -216 0
166 213 216 0
-166 -213 216 0
215 -217 0
-182 -217 0
182 -215 217 0
182 -215 -218 0
-182 215 -218 0
182 215 218 0
-182 -215 218 0
217 -219 0
-184 -219 0
184 -217 219 0
184 -217 -220 0
-184 217 -220 0
184 217 220 0
-184 -217 220 0
219 -221 0
-198 -221 0
198 -219 221 0
198 -219 -222 0
-198 219 -222 0
198 219 222 0
-198 -219 222 0
221 -223 0
-200 -223 0
200 -221 223 0
200 -221 -224 0
-200 221 -224 0
200 221 224 0
-200 -221 224 0
223 -225 0
-202 -225 0
202 -223 225 0
202 -223 -226 0
-202 223 -226 0
202 223 226 0
-202 -223 226 0
225 -227 0
-204 -227 0
204 -225 227 0
204 -225 -228 0
-204 225 -228 0
204 225 228 0
-204 -225 228 0
227 -229 0
-206 -229 0
206 -227 229 0
206 -227 -230 0
-206 227 -230 0
206 227 230 0
-206 -227 230 0
229 -231 0
-208 -231 0
208 -229 231 0
208 -229 -232 0
-208 229 -232 0
208 229 232 0
-208 -229 232 0
231 -233 0
-210 -233 0
210 -231 233 0
210 -231 -234 0
-210 231 -234 0
210 231 234 0
-210 -231 234 0
233 -235 0
-212 -235 0
212 -233 235 0
212 -233 -236 0
-212 233 -236 0
212 233 236 0
-212 -233 236 0
235 -237 0
-211 -237 0
211 -235 237 0
211 -235 -238 0
-211 235 -238 0
211 235 238 0
-211 -235 238 0
1 -239 0
9 -239 0
-1 -9 239 0
-1 -9 -240 0
1 9 -240 0
-1 9 240 0
1 -9 240 0
-48 -150 241 0
-48 -239 241 0
-150 -239 241 0
48 150 -241 0
48 239 -241 0
150 239 -241 0
48 -241 -242 0
150 -241 -242 0
239 -241 -242 0
-48 241 242 0
-150 241 242 0
-239 241 242 0
-48 -150 -239 242 0
48 150 239 -242 0
-64 -166 243 0
-64 -241 243 0
-166 -241 243 0
64 166 -243 0
64 241 -243 0
166 241 -243 0
64 -243 -244 0
166 -243 -244 0
241 -243 -244 0
-64 243 244 0
-166 243 244 0
-241 243 244 0
-64 -166 -241 244 0
64 166 241 -244 0
-80 -182 245 0
-80 -243 245 0
-182 -243 245 0
80 182 -245 0
80 243 -245 0
182 243 -245 0
80 -245 -246 0
182 -245 -246 0
243 -245 -246 0
-80 245 246 0
-182 245 246 0
-243 245 246 0
-80 -182 -243 246 0
80 182 243 -246 0
-96 -184 247 0
-96 -245 247 0
-184 -245 247 0
96 184 -247 0
96 245 -247 0
184 245 -247 0
96 -247 -248 0
184 -247 -248 0
245 -247 -248 0
-96 247 248 0
-184 247 248 0
-245 247 248 0
-96 -184 -245 248 0
96 184 245 -248 0
-98 -198 249 0
-98 -247 249 0
-198 -247 249 0
98 198 -249 0
98 247 -249 0
198 247 -249 0
98 -249 -250 0
198 -249 -250 0
247 -249 -250 0
-98 249 250 0
-198 249 250 0
-247 249 250 0
-98 -198 -247 250 0
98 198 247 -250 0
-100 -200 251 0
-100 -249 251 0
-200 -249 251 0
100 200 -251 0
100 249 -251 0
200 249 -251 0
100 -251 -252 0
200 -251 -252 0
249 -251 -252 0
-100 251 252 0
-200 251 252 0
-249 251 252 0
-100 -200 -249 252 0
100 200 249 -252 0
-102 -202 253 0
-102 -251 253 0
-202 -251 253 0
102 202 -253 0
102 251 -253 0
202 251 -253 0
102 -253 -254 0
202 -253 -254 0
251 -253 -254 0
-102 253 254 0
-202 253 254 0
-251 253 254 0
-102 -202 -251 254 0
102 202 251 -254 0
-104 -204 255 0
-104 -253 255 0
-204 -253 255 0
104 204 -255 0
104 253 -255 0
204 253 -255 0
104 -255 -256 0
204 -255 -256 0
253 -255 -256 0
-104 255 256 0
-204 255 256 0
-253 255 256 0
-104 -204 -253 256 0
104 204 253 -256 0
-106 -206 257 0
-106 -255 257 0
-206 -255 257 0
106 206 -257 0
106 255 -257 0
206 255 -257 0
106 -257 -258 0
206 -257 -258 0
255 -257 -258 0
-106 257 258 0
-206 257 258 0
-255 257 258 0
-106 -206 -255 258 0
106 206 255 -258 0
-108 -208 259 0
-108 -257 259 0
-208 -257 259 0
108 208 -259 0
108 257 -259 0
208 257 -259 0
108 -259 -260 0
208 -259 -260 0
257 -259 -260 0
-108 259 260 0
-208 259 260 0
-257 259 260 0
-108 -208 -257 260 0
108 208 257 -260 0
-110 -210 261 0
-110 -259 261 0
-210 -259 261 0
110 210 -261 0
110 259 -261 0
210 259 -261 0
110 -261 -262 0
210 -261 -262 0
259 -261 -262 0
-110 261 262 0
-210 261 262 0
-259 261 262 0
-110 -210 -259 262 0
110 210 259 -262 0
-109 -212 263 0
-109 -261 263 0
-212 -261 263 0
109 212 -263 0
109 261 -263 0
212 261 -263 0
109 -263 -264 0
212 -263 -264 0
261 -263 -264 0
-109 263 264 0
-212 263 264 0
-261 263 264 0
-109 -212 -261 264 0
109 212 261 -264 0
211 -265 0
263 -265 0
-211 -263 265 0
-211 -263 -266 0
211 263 -266 0
-211 263 266 0
211 -263 266 0
240 -267 0
242 -267 0
244 -267 0
-246 -267 0
248 -267 0
-250 -267 0
252 -267 0
-254 -267 0
-256 -267 0
-258 -267 0
-260 -267 0
-262 -267 0
-264 -267 0
-265 -267 0
-266 -267 0
-240 -242 -244 246 -248 250 -252 254 256 258 260 262 264 265 266 267 0
267 0
c main::$tmp::return_value_nondet_char!0@1#1 17 18 19 20 21 22 23 24
c symex::nondet1 9 10 11 12 13 14 15 16
c symex::nondet0 1 2 3 4 5 6 7 8
c main::$tmp::return_value_nondet_char$0!0@1#2 9 10 11 12 13 14 15 16
c __CPROVER_rounding_mode!0#1 FALSE FALSE FALSE FALSE FALSE FALSE FALSE FALSE FALSE FALSE FALSE FALSE FALSE FALSE FALSE FALSE FALSE FALSE FALSE FALSE FALSE FALSE FALSE FALSE FALSE FALSE FALSE FALSE FALSE FALSE FALSE FALSE
c main::$tmp::return_value_nondet_char$0!0@1#1 25 26 27 28 29 30 31 32
c __CPROVER_memory_leak#1 FALSE FALSE FALSE FALSE FALSE FALSE FALSE FALSE FALSE FALSE FALSE FALSE FALSE FALSE FALSE FALSE FALSE FALSE FALSE FALSE FALSE FALSE FALSE FALSE FALSE FALSE FALSE FALSE FALSE FALSE FALSE FALSE FALSE FALSE FALSE FALSE FALSE FALSE FALSE FALSE FALSE FALSE FALSE FALSE FALSE FALSE FALSE FALSE FALSE FALSE FALSE FALSE FALSE FALSE FALSE FALSE FALSE FALSE FALSE FALSE FALSE FALSE FALSE FALSE
c __CPROVER_max_malloc_size#1 FALSE FALSE FALSE FALSE FALSE FALSE FALSE FALSE FALSE FALSE FALSE FALSE FALSE FALSE FALSE FALSE FALSE FALSE FALSE FALSE FALSE FALSE FALSE FALSE FALSE FALSE FALSE FALSE FALSE FALSE FALSE FALSE FALSE FALSE FALSE FALSE FALSE FALSE FALSE FALSE FALSE FALSE FALSE FALSE FALSE FALSE FALSE FALSE FALSE FALSE FALSE FALSE FALSE FALSE FALSE TRUE FALSE FALSE FALSE FALSE FALSE FALSE FALSE FALSE
c __CPROVER_deallocated#1 FALSE FALSE FALSE FALSE FALSE FALSE FALSE FALSE FALSE FALSE FALSE FALSE FALSE FALSE FALSE FALSE FALSE FALSE FALSE FALSE FALSE FALSE FALSE FALSE FALSE FALSE FALSE FALSE FALSE FALSE FALSE FALSE FALSE FALSE FALSE FALSE FALSE FALSE FALSE FALSE FALSE FALSE FALSE FALSE FALSE FALSE FALSE FALSE FALSE FALSE FALSE FALSE FALSE FALSE FALSE FALSE FALSE FALSE FALSE FALSE FALSE FALSE FALSE FALSE
c main::$tmp::return_value_nondet_char!0@1#2 1 2 3 4 5 6 7 8
c __CPROVER_dead_object#1 FALSE FALSE FALSE FALSE FALSE FALSE FALSE FALSE FALSE FALSE FALSE FALSE FALSE FALSE FALSE FALSE FALSE FALSE FALSE FALSE FALSE FALSE FALSE FALSE FALSE FALSE FALSE FALSE FALSE FALSE FALSE FALSE FALSE FALSE FALSE FALSE FALSE FALSE FALSE FALSE FALSE FALSE FALSE FALSE FALSE FALSE FALSE FALSE FALSE FALSE FALSE FALSE FALSE FALSE FALSE FALSE FALSE FALSE FALSE FALSE FALSE FALSE FALSE FALSE
